
Cover cuts applied:  27
Implied bound cuts applied:  5
Flow cuts applied:  7
Mixed integer rounding cuts applied:  6
Zero-half cuts applied:  4
Gomory fractional cuts applied:  1

Root node processing (before b&c):
  Real time             =    0.08 sec. (33.50 ticks)
Parallel b&c, 4 threads:
  Real time             =    0.02 sec. (6.83 ticks)
  Sync time (average)   =    0.01 sec.
  Wait time (average)   =    0.00 sec.
                          ------------
Total (root+branch&cut) =    0.09 sec. (40.32 ticks)
Version identifier: 12.10.0.0 | 2019-11-26 | 843d4de
CPXPARAM_MIP_Interval                            10
CPXPARAM_MIP_Tolerances_AbsMIPGap                0.98999999999999999
Tried aggregator 2 times.
MIP Presolve eliminated 2825 rows and 1845 columns.
MIP Presolve modified 9 coefficients.
Aggregator did 53 substitutions.
Reduced MIP has 191 rows, 182 columns, and 659 nonzeros.
Reduced MIP has 80 binaries, 102 generals, 0 SOSs, and 0 indicators.
Presolve time = 0.00 sec. (2.68 ticks)
Probing fixed 0 vars, tightened 7 bounds.
Probing changed sense of 4 constraints.
Probing time = 0.00 sec. (0.04 ticks)
Tried aggregator 1 time.
Detecting symmetries...
MIP Presolve eliminated 7 rows and 6 columns.
MIP Presolve modified 9 coefficients.
Reduced MIP has 184 rows, 176 columns, and 634 nonzeros.
Reduced MIP has 76 binaries, 100 generals, 0 SOSs, and 0 indicators.
Presolve time = 0.00 sec. (0.44 ticks)
Probing time = 0.00 sec. (0.03 ticks)
Clique table members: 12.
MIP emphasis: balance optimality and feasibility.
MIP search method: dynamic search.
Parallel mode: deterministic, using up to 4 threads.
Root relaxation solution time = 0.01 sec. (2.06 ticks)

        Nodes                                         Cuts/
   Node  Left     Objective  IInf  Best Integer    Best Bound    ItCnt     Gap

      0     0       20.3846    64                     20.3846      266         
      0     0       20.2150    64                    Cuts: 75      332         
      0     0       20.0260    64                    Cuts: 75      389         
      0     0       20.0044    64                    Cuts: 60      432         
      0     0       19.9842    64                    Cuts: 41      470         
      0     0       19.9787    64                    Cuts: 41      498         
Detecting symmetries...
      0     0       19.9776    64                    Cuts: 41      523         
      0     0       19.9658    64                    Cuts: 17      578         
      0     0       19.9535    64                    Cuts: 66      636         
      0     0       19.9535    64                    Cuts: 49      680         
*     0+    0                           16.0000       19.9535            24.71%
Detecting symmetries...
      0     2       19.9535   111       16.0000       19.9535      680   24.71%
Elapsed time = 0.15 sec. (75.85 ticks, tree = 0.02 MB, solutions = 1)
*     9+    3                           17.0000       19.9535            17.37%
     10     5       19.9167    40       17.0000       19.9535      750   17.37%
     20    14       19.2153    45       17.0000       19.9535     1055   17.37%
     30    13       19.6250    47       17.0000       19.9535     1219   17.37%
     40    29       19.0556    15       17.0000       19.9535     1637   17.37%
     50    41       18.0000    24       17.0000       19.9535     1841   17.37%
*    60    41      integral     0       18.0000       19.9535     1986   10.85%
     60    40       18.0000     0       18.0000       19.9535     1986   10.85%
     70    37       19.0833    19       18.0000       19.9535     2342   10.85%
     80    41       19.6429    31       18.0000       19.9535     1975   10.85%
     90    33       19.2698    28       18.0000       19.9412     2573   10.78%
    100    30       19.6591    65       18.0000       19.9412     2901   10.78%
Elapsed time = 0.17 sec. (87.70 ticks, tree = 0.02 MB, solutions = 3)
    110    35       19.8503    73       18.0000       19.8771     2668   10.43%
    120    33        cutoff             18.0000       19.8771     2924   10.43%
    130    40       19.3333    28       18.0000       19.8486     3367   10.27%
    140    42        cutoff             18.0000       19.8486     3437   10.27%
    150    45        cutoff             18.0000       19.8486     3709   10.27%
    160    56       19.1210    21       18.0000       19.8486     4170   10.27%
    170    61        cutoff             18.0000       19.8409     4533   10.23%
    180    69       19.2222    37       18.0000       19.8409     5214   10.23%
    190    68       19.1806    39       18.0000       19.8409     4989   10.23%
    200    70       19.3333    39       18.0000       19.8409     5375   10.23%
Elapsed time = 0.18 sec. (98.35 ticks, tree = 0.03 MB, solutions = 3)
    210    66        cutoff             18.0000       19.8409     5097   10.23%
    220    70        cutoff             18.0000       19.8409     5465   10.23%
    230    68       19.1377    44       18.0000       19.8333     6086   10.19%
    240    67        cutoff             18.0000       19.8333     5684   10.19%
    250    66        cutoff             18.0000       19.6508     6194    9.17%
    260    70       19.0484    53       18.0000       19.6302     5844    9.06%
    270    70       19.0968    27       18.0000       19.6302     6335    9.06%
    280    66       19.1250    25       18.0000       19.6302     6758    9.06%
    290    65        cutoff             18.0000       19.6302     6416    9.06%
    300    65        cutoff             18.0000       19.6302     6888    9.06%
Elapsed time = 0.19 sec. (107.70 ticks, tree = 0.04 MB, solutions = 3)
    310    64        cutoff             18.0000       19.5610     6970    8.67%
    320    60        cutoff             18.0000       19.5610     8456    8.67%
    330    52        cutoff             18.0000       19.5610     8558    8.67%
    340    66       19.0000    67       18.0000       19.5000     7836    8.33%
    350    59        cutoff             18.0000       19.5000     8532    8.33%
    360    42       19.0000     8       18.0000       19.2500     9240    6.94%
    370    40       19.0000     6       18.0000       19.2500     9270    6.94%
    380    37       19.0000     2       18.0000       19.2500     9252    6.94%
    390    14        cutoff             18.0000       19.2500     9895    6.94%
    400    34    infeasible             18.0000       19.1962     9390    6.65%
Elapsed time = 0.20 sec. (115.96 ticks, tree = 0.02 MB, solutions = 3)
    410    38       19.0000     6       18.0000       19.1962     9450    6.65%
    420     4        cutoff             18.0000       19.0000    10516    5.56%
    430     6    infeasible             18.0000       19.0000    10549    5.56%
    440     8       19.0000     8       18.0000       19.0000    10603    5.56%
    450     6    infeasible             18.0000       19.0000    10632    5.56%
the number of Nodes = 456
